# Initialization
units metal
dimension 3
boundary p p f
newton on
atom_style full
neighbor 2.0 nsq
neigh_modify delay 0 every 2  check yes one 4000

# Creat geometry 
read_data    LJcut4_8min4_5PBD20x6_7Lay2_C5@5x2_300K_AF0relax400000.data

set mol 2 type 2
set mol 3 type 3
set mol 4 type 3

# Potential
pair_style 	hybrid airebo 4.8 1 0  lj/cut  15.8
pair_coeff   * * airebo CH.airebo C C C 
pair_coeff   1 2*3  lj/cut  0.00284 3.4
pair_coeff   2 3    lj/cut  0.00284 3.4


#region rgn_graDown block INF INF INF INF INF 5 units box
group  grp_graDown molecule 1

#region rgn_graUp block INF INF INF INF 40 INF units box
group  grp_graUp molecule 2

#region rgn_ND block INF INF INF INF 5 40 units box
#group  grp_ND region rgn_ND
group  grp_ND molecule 3:4

#------------------ calculate energy -----------------------

timestep 0.001

variable  Tv  equal  300.0 #0.00001
variable  addFz  equal  -0.0 #0.00001

velocity all create ${Tv} 8739753 mom yes rot yes

compute pePerAtom all       pe/atom
compute peGrUp grp_graUp    reduce sum c_pePerAtom
compute peND   grp_ND       reduce sum c_pePerAtom
compute peGrDown grp_graDown  reduce sum c_pePerAtom

compute centND grp_ND com

#compute LJUpAll     grp_graUp     group/group all  # does not work
#compute LJDownAll   grp_graDown   group/group all  # does not work
#compute LJNDAll     grp_ND        group/group all  # does not work
compute LJUpDown    grp_graUp     group/group grp_graDown
compute LJUpND      grp_graUp     group/group grp_ND
compute LJDownND    grp_graDown     group/group grp_ND

variable eUp  equal     c_peGrUp-c_LJUpDown/2-c_LJUpND/2
variable eDown  equal   c_peGrDown-c_LJUpDown/2-c_LJDownND/2
variable peND  equal    c_peND-c_LJUpND/2-c_LJDownND/2

#fix rlx_0 grp_gra_ND nvt temp ${Tv} ${Tv} 0.05
fix rlx_0 all nve
fix rlx_1 all langevin  ${Tv}  ${Tv}  0.1  668433

fix rlx_3 grp_graDown wall/lj93 zlo -4.89 0.07013  4.89  15.0
fix rlx_4 grp_graDown momentum 500 linear 1 1 0 angular rescale

fix rlx_5 grp_graUp addforce 0.0 0.0 ${addFz} every 1

group  grp_ND_1 molecule 3
group  grp_ND_2 molecule 4
fix rlx_6_1 grp_ND_1 momentum 10 linear 1 1 0 rescale
fix rlx_6_2 grp_ND_2 momentum 10 linear 1 1 0 rescale

dump  relax all custom 1 dump/relax*.dump  id mol type x y z c_pePerAtom fz

thermo  1
thermo_style custom step lx ly lz pe etotal temp c_peGrUp c_peND c_peGrDown c_LJUpDown  c_LJUpND  c_LJDownND &
 v_eUp  v_eDown  v_peND
#  c_LJUpAll  c_LJDownAll  c_LJNDAll  

balance 1.1 shift xyz 100 1.1

run 1


